0 3085
2401 3005
4802 2961
7203 2926
9604 2889
12005 2847
14406 2845
16807 2844
19208 2816
21609 2800
24010 2795
26411 2789
28812 2782
31213 2771
33614 2739
36015 2733
38416 2732
43218 2731
45619 2729
